(set-logic QF_S)
(declare-fun T_12 () Bool)
(declare-fun T_13 () Bool)
(declare-fun T_SELECT_4 () Bool)
(declare-fun T_SELECT_5 () Bool)
(declare-fun T_c () Bool)
(declare-fun T_e () Bool)
(declare-fun T_f () Bool)
(declare-fun I0_23 () Int)
(declare-fun I1_23 () Int)
(declare-fun I2_23 () Int)
(declare-fun PCTEMP_LHS_4 () Int)
(declare-fun PCTEMP_LHS_5 () Int)
(declare-fun T_10 () Int)
(declare-fun NEW_DGNode_486 () String)
(declare-fun NEW_DGNode_490 () String)
(declare-fun NEW_DGNode_494 () String)
(declare-fun NEW_DGNode_498 () String)
(declare-fun NEW_DGNode_502 () String)
(declare-fun NEW_DGNode_506 () String)
(declare-fun PCTEMP_LHS_6 () String)
(declare-fun T_a7 () String)
(declare-fun T_a8 () String)
(declare-fun T_a9 () String)
(declare-fun T_aa () String)
(declare-fun T_ab () String)
(declare-fun T_ac () String)
(assert (= T_ac (str.++ T_ab NEW_DGNode_506)))
(assert (= T_ab (str.++ T_aa NEW_DGNode_502)))
(assert (= T_aa (str.++ T_a9 NEW_DGNode_498)))
(assert (= T_a9 (str.++ T_a8 NEW_DGNode_494)))
(assert (= T_a8 (str.++ T_a7 NEW_DGNode_490)))
(assert (= T_a7 (str.++ NEW_DGNode_486 PCTEMP_LHS_6)))
(assert (= NEW_DGNode_486 "__utmb="))
(assert (= PCTEMP_LHS_6 "-"))
(assert (= NEW_DGNode_490 ";"))
(assert (= NEW_DGNode_494 "/"))
(assert (= NEW_DGNode_498 ";"))
(assert (= NEW_DGNode_502 ""))
(assert (= NEW_DGNode_506 ""))
(assert (= T_SELECT_5 (not (= PCTEMP_LHS_5 (- 1)))))
(assert T_f)
(assert (= T_f (not T_e)))
(assert (= T_e (< PCTEMP_LHS_5 0)))
(assert (= T_SELECT_4 (not (= PCTEMP_LHS_4 (- 1)))))
(assert T_c)
(assert (= T_c (< (- 1) PCTEMP_LHS_4)))
(assert (= T_10 (+ PCTEMP_LHS_4 7)))
(assert (>= T_10 0))
(assert (>= PCTEMP_LHS_5 T_10))
(assert (= I2_23 I1_23))
(assert (<= PCTEMP_LHS_5 I1_23))
(assert (= I0_23 (- PCTEMP_LHS_5 T_10)))
(assert (= I0_23 (str.len PCTEMP_LHS_6))) ; len 0
(assert T_12)
(assert T_13)
(assert (= T_13 (not T_12)))
(check-sat)
